
Value of objective function: 0.01855275

Actual values of the variables:
pL1_div_from_law        0.0185528
comp_pos0                       0
comp_neg0                       0
comp_pos1                       0
comp_neg1                       0
comp_pos2                       0
comp_neg2                       0
comp_pos3                       0
comp_neg3                       0
comp_pos4                       0
comp_neg4                       0
comp_pos5                       0
comp_neg5                       0
comp_pos6               0.0185528
comp_neg6                       0
comp_pos7                       0
comp_neg7                       0
comp_pos8                       0
comp_neg8                       0
comp_pos9                       0
comp_neg9                       0
comp_pos10                      0
comp_neg10                      0
comp_pos11                      0
comp_neg11                      0
comp_pos12                      0
comp_neg12                      0
comp_pos13                      0
comp_neg13                      0
z_c0_t0               1.32138e+10
p0_c0_t0              2.46146e+09
p1_c0_t0               2.5686e+09
p2_c0_t0              7.79507e+09
p3_c0_t0              3.88715e+08
diff0                           0
normdiff0                       0
z_c0_t1               1.47752e+10
p0_c0_t1              2.13887e+09
p1_c0_t1              2.85195e+09
p2_c0_t1              9.27495e+09
p3_c0_t1               5.0942e+08
diff1                           0
normdiff1                       0
z_c1_t0               1.65566e+10
p0_c1_t0              2.48871e+09
p1_c1_t0              3.30042e+09
p2_c1_t0              1.05971e+10
p3_c1_t0              1.70339e+08
diff2                           0
normdiff2                       0
z_c1_t1               1.94959e+10
p0_c1_t1               2.5332e+09
p1_c1_t1              4.69528e+09
p2_c1_t1              1.20854e+10
p3_c1_t1              1.81976e+08
diff3                           0
normdiff3                       0
z_c2_t0               7.24754e+09
p0_c2_t0               8.4912e+08
p1_c2_t0              1.34679e+09
p2_c2_t0              4.90106e+09
p3_c2_t0              1.50576e+08
diff4                           0
normdiff4                       0
z_c2_t1               7.97123e+09
p0_c2_t1              6.89309e+08
p1_c2_t1              1.55864e+09
p2_c2_t1              5.52098e+09
p3_c2_t1              2.02304e+08
diff5                           0
normdiff5                       0
z_c3_t0               1.22612e+10
p0_c3_t0              1.53626e+09
p1_c3_t0              2.30249e+09
p2_c3_t0              8.26141e+09
p3_c3_t0              3.88498e+08
diff6                 2.27479e+08
normdiff6               0.0185528
z_c3_t1               1.42798e+10
p0_c3_t1              1.75504e+09
p1_c3_t1              2.35803e+09
p2_c3_t1              9.29363e+09
p3_c3_t1              8.73076e+08
diff7                           0
normdiff7                       0
z_c4_t0               7.97197e+09
p0_c4_t0              6.78067e+08
p1_c4_t0              2.60228e+09
p2_c4_t0              4.57074e+09
p3_c4_t0              1.20886e+08
diff8                           0
normdiff8                       0
z_c4_t1                8.9819e+09
p0_c4_t1               7.0115e+08
p1_c4_t1              2.37204e+09
p2_c4_t1              5.82451e+09
p3_c4_t1              8.42053e+07
diff9                           0
normdiff9                       0
z_c5_t0               1.00642e+10
p0_c5_t0              1.19575e+09
p1_c5_t0              2.17399e+09
p2_c5_t0               6.6441e+09
p3_c5_t0              5.03208e+07
diff10                          0
normdiff10                      0
z_c5_t1                1.2016e+10
p0_c5_t1              8.82287e+08
p1_c5_t1              2.15339e+09
p2_c5_t1              8.75305e+09
p3_c5_t1              2.27284e+08
diff11                          0
normdiff11                      0
z_c6_t0               1.81204e+10
p0_c6_t0              2.18334e+09
p1_c6_t0              2.74648e+09
p2_c6_t0              1.30263e+10
p3_c6_t0              1.64267e+08
diff12                          0
normdiff12                      0
z_c6_t1               2.06345e+10
p0_c6_t1              2.34768e+09
p1_c6_t1              2.49245e+09
p2_c6_t1              1.56766e+10
p3_c6_t1              1.17716e+08
diff13                          0
normdiff13                      0
